Problem:    investimenti
Rows:       14
Columns:    24
Non-zeros:  74
Status:     OPTIMAL
Objective:  z = 413.1115617 (MAXimum)

   No.   Row name   St   Activity     Lower bound   Upper bound    Marginal
------ ------------ -- ------------- ------------- ------------- -------------
     1 Composizione[1,1]
                    NS             0            -0             =         < eps
     2 Composizione[1,2]
                    NS             0            -0             =         0.125 
     3 Composizione[1,3]
                    NS             0            -0             =       1.64286 
     4 Composizione[1,4]
                    NS             0            -0             =         < eps
     5 Composizione[2,1]
                    NS             0            -0             =     0.0843931 
     6 Composizione[2,2]
                    NS             0            -0             =      0.240462 
     7 Composizione[2,3]
                    NS             0            -0             =      0.292486 
     8 Composizione[2,4]
                    NS             0            -0             =      0.939884 
     9 Composizione[3,1]
                    NS             0            -0             =      0.505837 
    10 Composizione[3,2]
                    NS             0            -0             =      0.229572 
    11 Composizione[3,3]
                    NS             0            -0             =         < eps
    12 Composizione[3,4]
                    NS             0            -0             =      0.346304 
    13 Budget       B        1121.45                        1130 
    14 z            B        413.112                             

   No. Column name  St   Activity     Lower bound   Upper bound    Marginal
------ ------------ -- ------------- ------------- ------------- -------------
     1 x[1,1]       NL             0             0                  -0.0160714 
     2 x[1,2]       B        68.5714             0               
     3 x[1,3]       B        225.714             0               
     4 x[1,4]       NL             0             0                  -0.0928571 
     5 x[2,1]       B        119.422             0               
     6 x[2,2]       B        187.399             0               
     7 x[2,3]       B        82.7746             0               
     8 x[2,4]       B        50.4046             0               
     9 x[3,1]       B        143.969             0               
    10 x[3,2]       B        150.973             0               
    11 x[3,3]       B        92.2179             0               
    12 x[3,4]       NL             0             0                  -0.0470817 
    13 y[1,1]       B        63.2857             0           100 
    14 y[1,2]       NU           100             0           100         0.125 
    15 y[1,3]       NU            79             0            79       1.64286 
    16 y[1,4]       B             52             0            98 
    17 y[2,1]       NU           150             0           150     0.0843931 
    18 y[2,2]       NU           120             0           120      0.240462 
    19 y[2,3]       NU            80             0            80      0.292486 
    20 y[2,4]       NU            90             0            90      0.939884 
    21 y[3,1]       NU           110             0           110      0.505837 
    22 y[3,2]       NU            90             0            90      0.229572 
    23 y[3,3]       B        57.1595             0           200 
    24 y[3,4]       NU           130             0           130      0.346304 

Karush-Kuhn-Tucker optimality conditions:

KKT.PE: max.abs.err = 2.84e-14 on row 5
        max.rel.err = 1.09e-16 on row 12
        High quality

KKT.PB: max.abs.err = 0.00e+00 on row 0
        max.rel.err = 0.00e+00 on row 0
        High quality

KKT.DE: max.abs.err = 5.55e-17 on column 6
        max.rel.err = 3.47e-17 on column 6
        High quality

KKT.DB: max.abs.err = 0.00e+00 on row 0
        max.rel.err = 0.00e+00 on row 0
        High quality

End of output
